p cnf 252 463
-1 2 3 4 6 7 18 19 58 77 78 79 80 81 82 83 86 88 89 111 145 157 158 160 163 165 172 173 174 175 176 177 178 179 180 181 182 184 185 186 187 188 189 190 191 193 199 200 201 202 223 224 226 227 228 229 230 231 232 233 234 236 237 238 239 240 241 242 243 244 245 247 -249 -250 -109 0 
-2 1 3 4 6 7 18 19 58 77 78 79 80 81 82 83 86 88 89 111 145 157 158 160 163 165 172 173 174 175 176 177 178 179 180 181 182 184 185 186 187 188 189 190 191 193 199 200 201 202 223 224 226 227 228 229 230 231 232 233 234 236 237 238 239 240 241 242 243 244 245 247 -249 -250 -109 0 
-3 1 2 4 6 7 18 19 58 77 78 79 80 81 82 83 86 88 89 111 145 157 158 160 163 165 172 173 174 175 176 177 178 179 180 181 182 184 185 186 187 188 189 190 191 193 199 200 201 202 223 224 226 227 228 229 230 231 232 233 234 236 237 238 239 240 241 242 243 244 245 247 -249 -250 -109 0 
-4 1 2 3 6 7 18 19 58 77 78 79 80 81 82 83 86 88 89 111 145 157 158 160 163 165 172 173 174 175 176 177 178 179 180 181 182 184 185 186 187 188 189 190 191 193 199 200 201 202 223 224 226 227 228 229 230 231 232 233 234 236 237 238 239 240 241 242 243 244 245 247 -249 -250 -109 0 
-5 10 13 17 23 29 93 127 144 169 235 248 -249 -250 -12 -21 -24 -37 0 
-6 1 2 3 4 7 18 19 58 77 78 79 80 81 82 83 86 88 89 111 145 157 158 160 163 165 172 173 174 175 176 177 178 179 180 181 182 184 185 186 187 188 189 190 191 193 199 200 201 202 223 224 226 227 228 229 230 231 232 233 234 236 237 238 239 240 241 242 243 244 245 248 -249 -250 -12 -21 -24 -37 0 
-7 1 2 3 4 6 18 19 58 77 78 79 80 81 82 83 86 88 89 111 145 157 158 160 163 165 172 173 174 175 176 177 178 179 180 181 182 184 185 186 187 188 189 190 191 193 199 200 201 202 223 224 226 227 228 229 230 231 232 233 234 236 237 238 239 240 241 242 243 244 245 248 -249 -250 -12 -21 -24 -37 0 
-24 12 21 37 249 -250 0 
-25 250 -249 0 
-26 38 43 -27 73 -28 104 250 -249 0 
-26 38 43 -27 73 -10 5 13 17 23 29 93 127 144 169 235 250 -249 0 
-26 38 43 -27 73 -29 5 10 13 17 23 93 127 144 169 235 250 -249 0 
-30 -31 249 -250 0 
-32 98 250 -249 0 
-33 69 -27 73 250 -249 0 
-34 250 -249 0 
-35 70 250 -249 0 
-26 38 43 -21 12 24 37 -36 46 61 71 122 142 156 162 164 168 204 205 206 207 208 246 250 -249 0 
-37 12 21 24 249 -250 0 
-38 26 43 249 -250 0 
-26 38 43 -39 107 250 -249 0 
-27 73 -40 48 65 66 96 143 148 250 -249 0 
-26 38 43 -41 57 97 250 -249 0 
-42 53 121 -43 26 38 248 -249 -250 -12 -21 -24 -37 0 
-26 38 43 -27 73 250 -249 0 
-44 250 -249 0 
-35 70 -45 250 -249 0 
-26 38 43 -21 12 24 37 -46 36 61 71 122 142 156 162 164 168 204 205 206 207 208 246 -47 250 -249 0 
-26 38 43 -21 12 24 37 -48 40 65 66 96 143 148 -47 250 -249 0 
-12 21 24 37 249 -250 0 
-49 106 214 250 -249 0 
-50 60 67 112 250 -249 0 
-51 8 14 20 87 126 129 171 194 250 -249 0 
-52 250 -249 0 
-53 42 121 -54 250 -249 0 
-12 21 24 37 -55 249 -250 0 
-42 53 121 -55 247 -249 -250 -109 0 
-56 137 151 250 -249 0 
-21 12 24 37 -57 41 97 250 -249 0 
-58 1 2 3 4 6 7 18 19 77 78 79 80 81 82 83 86 88 89 111 145 157 158 160 163 165 172 173 174 175 176 177 178 179 180 181 182 184 185 186 187 188 189 190 191 193 199 200 201 202 223 224 226 227 228 229 230 231 232 233 234 236 237 238 239 240 241 242 243 244 245 248 -249 -250 -12 -21 -24 -37 0 
-59 22 115 131 195 203 -60 50 67 112 250 -249 0 
-61 36 46 71 122 142 156 162 164 168 204 205 206 207 208 246 -62 136 146 147 250 -249 0 
-63 -43 26 38 248 -249 -250 -12 -21 -24 -37 0 
-48 40 65 66 96 143 148 251 0 
-40 48 65 66 96 143 148 251 0 
-65 40 48 66 96 143 148 251 0 
-66 40 48 65 96 143 148 251 0 
-36 46 61 71 122 142 156 162 164 168 204 205 206 207 208 246 -67 50 60 112 250 -249 0 
-68 84 85 90 159 161 -21 12 24 37 -69 33 250 -249 0 
-70 35 -55 249 -250 0 
-21 12 24 37 -71 36 46 61 122 142 156 162 164 168 204 205 206 207 208 246 -72 250 -249 0 
-73 27 250 -249 0 
-26 38 43 -51 8 14 20 87 126 129 171 194 250 -249 0 
-26 38 43 -56 137 151 250 -249 0 
-16 11 196 -42 53 121 -74 250 -249 0 
-75 99 154 -76 250 -249 0 
-26 38 43 250 -249 0 
-77 1 2 3 4 6 7 18 19 58 78 79 80 81 82 83 86 88 89 111 145 157 158 160 163 165 172 173 174 175 176 177 178 179 180 181 182 184 185 186 187 188 189 190 191 193 199 200 201 202 223 224 226 227 228 229 230 231 232 233 234 236 237 238 239 240 241 242 243 244 245 248 -249 -250 -12 -21 -24 -37 0 
-78 1 2 3 4 6 7 18 19 58 77 79 80 81 82 83 86 88 89 111 145 157 158 160 163 165 172 173 174 175 176 177 178 179 180 181 182 184 185 186 187 188 189 190 191 193 199 200 201 202 223 224 226 227 228 229 230 231 232 233 234 236 237 238 239 240 241 242 243 244 245 248 -249 -250 -12 -21 -24 -37 0 
-79 1 2 3 4 6 7 18 19 58 77 78 80 81 82 83 86 88 89 111 145 157 158 160 163 165 172 173 174 175 176 177 178 179 180 181 182 184 185 186 187 188 189 190 191 193 199 200 201 202 223 224 226 227 228 229 230 231 232 233 234 236 237 238 239 240 241 242 243 244 245 248 -249 -250 -12 -21 -24 -37 0 
-80 1 2 3 4 6 7 18 19 58 77 78 79 81 82 83 86 88 89 111 145 157 158 160 163 165 172 173 174 175 176 177 178 179 180 181 182 184 185 186 187 188 189 190 191 193 199 200 201 202 223 224 226 227 228 229 230 231 232 233 234 236 237 238 239 240 241 242 243 244 245 248 -249 -250 -12 -21 -24 -37 0 
-91 95 113 114 116 118 119 140 -92 250 -249 0 
-93 5 10 13 17 23 29 127 144 169 235 -94 250 -249 0 
-95 91 113 114 116 118 119 140 247 -249 -250 -109 0 
-27 73 250 -249 0 
-15 192 -96 40 48 65 66 143 148 -21 12 24 37 250 -249 0 
-27 73 -97 41 57 -11 16 196 -17 5 10 13 23 29 93 127 144 169 235 248 -249 -250 -12 -21 -24 -37 0 
-98 32 250 -249 0 
-21 12 24 37 -47 247 -249 -250 -109 0 
-42 53 121 -47 250 -249 0 
-99 75 154 -47 252 -249 -250 -27 -73 0 
-26 38 43 -100 -101 -47 250 -249 0 
-27 73 -28 104 -47 -34 250 -249 0 
-102 -47 -103 250 -249 0 
-21 12 24 37 -104 28 -105 120 211 -34 250 -249 0 
-40 48 65 66 96 143 148 -106 49 214 250 -249 0 
-107 39 -47 250 -249 0 
-35 70 -108 141 250 -249 0 
-109 -47 250 -249 0 
-31 250 -249 0 
-11 16 196 -103 250 -249 0 
-110 -103 250 -249 0 
-47 250 -249 0 
-47 -103 250 -249 0 
-111 1 2 3 4 6 7 18 19 58 77 78 79 80 81 82 83 86 88 89 145 157 158 160 163 165 172 173 174 175 176 177 178 179 180 181 182 184 185 186 187 188 189 190 191 193 199 200 201 202 223 224 226 227 228 229 230 231 232 233 234 236 237 238 239 240 241 242 243 244 245 248 -249 -250 -12 -21 -24 -37 0 
-59 22 115 131 195 203 -112 50 60 67 250 -249 0 
-120 105 211 248 -249 -250 -12 -21 -24 -37 0 
-121 42 53 248 -249 -250 -12 -21 -24 -37 0 
-26 38 43 -11 16 196 -97 41 57 248 -249 -250 -12 -21 -24 -37 0 
-122 36 46 61 71 142 156 162 164 168 204 205 206 207 208 246 248 -249 -250 -12 -21 -24 -37 0 
-27 73 -120 105 211 248 -249 -250 -12 -21 -24 -37 0 
-27 73 -121 42 53 248 -249 -250 -12 -21 -24 -37 0 
-103 250 -249 0 
-43 26 38 249 -250 0 
-43 26 38 252 -249 -250 -27 -73 0 
-124 -125 250 -249 0 
-26 38 43 -15 192 -126 8 14 20 51 87 129 171 194 250 -249 0 
-27 73 -97 41 57 -42 53 121 -122 36 46 61 71 142 156 162 164 168 204 205 206 207 208 246 248 -249 -250 -12 -21 -24 -37 0 
-70 35 -37 12 21 24 249 -250 0 
-127 5 10 13 17 23 29 93 144 169 235 249 -250 0 
-128 -129 8 14 20 51 87 126 171 194 249 -250 0 
-27 73 -130 248 -249 -250 -12 -21 -24 -37 0 
-132 134 135 210 213 250 -249 0 
-133 250 -249 0 
-134 132 135 210 213 250 -249 0 
-26 38 43 -105 120 211 250 -249 0 
-135 132 134 210 213 250 -249 0 
-71 36 46 61 122 142 156 162 164 168 204 205 206 207 208 246 -136 62 146 147 250 -249 0 
-26 38 43 -27 73 -137 56 151 250 -249 0 
-138 250 -249 0 
-139 250 -249 0 
-140 91 95 113 114 116 118 119 248 -249 -250 -12 -21 -24 -37 0 
-110 -141 108 250 -249 0 
-68 84 85 90 159 161 -142 36 46 61 71 122 156 162 164 168 204 205 206 207 208 246 250 -249 0 
-26 38 43 -27 73 -40 48 65 66 96 143 148 250 -249 0 
-143 40 48 65 66 96 148 250 -249 0 
-27 73 -144 5 10 13 17 23 29 93 127 169 235 -16 11 196 250 -249 0 
-21 12 24 37 -145 1 2 3 4 6 7 18 19 58 77 78 79 80 81 82 83 86 88 89 111 157 158 160 163 165 172 173 174 175 176 177 178 179 180 181 182 184 185 186 187 188 189 190 191 193 199 200 201 202 223 224 226 227 228 229 230 231 232 233 234 236 237 238 239 240 241 242 243 244 245 -146 62 136 147 250 -249 0 
-71 36 46 61 122 142 156 162 164 168 204 205 206 207 208 246 -147 62 136 146 250 -249 0 
-120 105 211 -57 41 97 249 -250 0 
-12 21 24 37 -148 40 48 65 66 96 143 249 -250 0 
-149 250 -249 0 
-150 -47 250 -249 0 
-35 70 -42 53 121 250 -249 0 
-143 40 48 65 66 96 148 -147 62 136 146 250 -249 0 
-151 56 137 -152 250 -249 0 
-21 12 24 37 -153 250 -249 0 
-154 75 99 -155 250 -249 0 
-163 1 2 3 4 6 7 18 19 58 77 78 79 80 81 82 83 86 88 89 111 145 157 158 160 165 172 173 174 175 176 177 178 179 180 181 182 184 185 186 187 188 189 190 191 193 199 200 201 202 223 224 226 227 228 229 230 231 232 233 234 236 237 238 239 240 241 242 243 244 245 248 -249 -250 -12 -21 -24 -37 0 
-164 36 46 61 71 122 142 156 162 168 204 205 206 207 208 246 248 -249 -250 -12 -21 -24 -37 0 
-165 1 2 3 4 6 7 18 19 58 77 78 79 80 81 82 83 86 88 89 111 145 157 158 160 163 172 173 174 175 176 177 178 179 180 181 182 184 185 186 187 188 189 190 191 193 199 200 201 202 223 224 226 227 228 229 230 231 232 233 234 236 237 238 239 240 241 242 243 244 245 248 -249 -250 -12 -21 -24 -37 0 
-166 -12 21 24 37 249 -250 0 
-75 99 154 250 -249 0 
-167 216 250 -249 0 
-43 26 38 248 -249 -250 -12 -21 -24 -37 0 
-168 36 46 61 71 122 142 156 162 164 204 205 206 207 208 246 248 -249 -250 -12 -21 -24 -37 0 
-169 5 10 13 17 23 29 93 127 144 235 249 -250 0 
-27 73 -170 248 -249 -250 -12 -21 -24 -37 0 
-128 -37 12 21 24 249 -250 0 
-37 12 21 24 -38 26 43 249 -250 0 
-97 41 57 -27 73 -11 16 196 -17 5 10 13 23 29 93 127 144 169 235 -171 8 14 20 51 87 126 129 194 248 -249 -250 -12 -21 -24 -37 0 
-97 41 57 -27 73 -17 5 10 13 23 29 93 127 144 169 235 -122 36 46 61 71 142 156 162 164 168 204 205 206 207 208 246 248 -249 -250 -12 -21 -24 -37 0 
-27 73 -12 21 24 37 250 -249 0 
-172 1 2 3 4 6 7 18 19 58 77 78 79 80 81 82 83 86 88 89 111 145 157 158 160 163 165 173 174 175 176 177 178 179 180 181 182 184 185 186 187 188 189 190 191 193 199 200 201 202 223 224 226 227 228 229 230 231 232 233 234 236 237 238 239 240 241 242 243 244 245 247 -249 -250 -109 0 
-173 1 2 3 4 6 7 18 19 58 77 78 79 80 81 82 83 86 88 89 111 145 157 158 160 163 165 172 174 175 176 177 178 179 180 181 182 184 185 186 187 188 189 190 191 193 199 200 201 202 223 224 226 227 228 229 230 231 232 233 234 236 237 238 239 240 241 242 243 244 245 247 -249 -250 -109 0 
-174 1 2 3 4 6 7 18 19 58 77 78 79 80 81 82 83 86 88 89 111 145 157 158 160 163 165 172 173 175 176 177 178 179 180 181 182 184 185 186 187 188 189 190 191 193 199 200 201 202 223 224 226 227 228 229 230 231 232 233 234 236 237 238 239 240 241 242 243 244 245 247 -249 -250 -109 0 
-175 1 2 3 4 6 7 18 19 58 77 78 79 80 81 82 83 86 88 89 111 145 157 158 160 163 165 172 173 174 176 177 178 179 180 181 182 184 185 186 187 188 189 190 191 193 199 200 201 202 223 224 226 227 228 229 230 231 232 233 234 236 237 238 239 240 241 242 243 244 245 247 -249 -250 -109 0 
-176 1 2 3 4 6 7 18 19 58 77 78 79 80 81 82 83 86 88 89 111 145 157 158 160 163 165 172 173 174 175 177 178 179 180 181 182 184 185 186 187 188 189 190 191 193 199 200 201 202 223 224 226 227 228 229 230 231 232 233 234 236 237 238 239 240 241 242 243 244 245 247 -249 -250 -109 0 
-177 1 2 3 4 6 7 18 19 58 77 78 79 80 81 82 83 86 88 89 111 145 157 158 160 163 165 172 173 174 175 176 178 179 180 181 182 184 185 186 187 188 189 190 191 193 199 200 201 202 223 224 226 227 228 229 230 231 232 233 234 236 237 238 239 240 241 242 243 244 245 247 -249 -250 -109 0 
-178 1 2 3 4 6 7 18 19 58 77 78 79 80 81 82 83 86 88 89 111 145 157 158 160 163 165 172 173 174 175 176 177 179 180 181 182 184 185 186 187 188 189 190 191 193 199 200 201 202 223 224 226 227 228 229 230 231 232 233 234 236 237 238 239 240 241 242 243 244 245 247 -249 -250 -109 0 
-179 1 2 3 4 6 7 18 19 58 77 78 79 80 81 82 83 86 88 89 111 145 157 158 160 163 165 172 173 174 175 176 177 178 180 181 182 184 185 186 187 188 189 190 191 193 199 200 201 202 223 224 226 227 228 229 230 231 232 233 234 236 237 238 239 240 241 242 243 244 245 247 -249 -250 -109 0 
-180 1 2 3 4 6 7 18 19 58 77 78 79 80 81 82 83 86 88 89 111 145 157 158 160 163 165 172 173 174 175 176 177 178 179 181 182 184 185 186 187 188 189 190 191 193 199 200 201 202 223 224 226 227 228 229 230 231 232 233 234 236 237 238 239 240 241 242 243 244 245 247 -249 -250 -109 0 
-181 1 2 3 4 6 7 18 19 58 77 78 79 80 81 82 83 86 88 89 111 145 157 158 160 163 165 172 173 174 175 176 177 178 179 180 182 184 185 186 187 188 189 190 191 193 199 200 201 202 223 224 226 227 228 229 230 231 232 233 234 236 237 238 239 240 241 242 243 244 245 247 -249 -250 -109 0 
-182 1 2 3 4 6 7 18 19 58 77 78 79 80 81 82 83 86 88 89 111 145 157 158 160 163 165 172 173 174 175 176 177 178 179 180 181 184 185 186 187 188 189 190 191 193 199 200 201 202 223 224 226 227 228 229 230 231 232 233 234 236 237 238 239 240 241 242 243 244 245 247 -249 -250 -109 0 
-183 219 220 -26 38 43 250 -249 0 
-184 1 2 3 4 6 7 18 19 58 77 78 79 80 81 82 83 86 88 89 111 145 157 158 160 163 165 172 173 174 175 176 177 178 179 180 181 182 185 186 187 188 189 190 191 193 199 200 201 202 223 224 226 227 228 229 230 231 232 233 234 236 237 238 239 240 241 242 243 244 245 247 -249 -250 -109 0 
-185 1 2 3 4 6 7 18 19 58 77 78 79 80 81 82 83 86 88 89 111 145 157 158 160 163 165 172 173 174 175 176 177 178 179 180 181 182 184 186 187 188 189 190 191 193 199 200 201 202 223 224 226 227 228 229 230 231 232 233 234 236 237 238 239 240 241 242 243 244 245 247 -249 -250 -109 0 
-186 1 2 3 4 6 7 18 19 58 77 78 79 80 81 82 83 86 88 89 111 145 157 158 160 163 165 172 173 174 175 176 177 178 179 180 181 182 184 185 187 188 189 190 191 193 199 200 201 202 223 224 226 227 228 229 230 231 232 233 234 236 237 238 239 240 241 242 243 244 245 247 -249 -250 -109 0 
-187 1 2 3 4 6 7 18 19 58 77 78 79 80 81 82 83 86 88 89 111 145 157 158 160 163 165 172 173 174 175 176 177 178 179 180 181 182 184 185 186 188 189 190 191 193 199 200 201 202 223 224 226 227 228 229 230 231 232 233 234 236 237 238 239 240 241 242 243 244 245 247 -249 -250 -109 0 
-188 1 2 3 4 6 7 18 19 58 77 78 79 80 81 82 83 86 88 89 111 145 157 158 160 163 165 172 173 174 175 176 177 178 179 180 181 182 184 185 186 187 189 190 191 193 199 200 201 202 223 224 226 227 228 229 230 231 232 233 234 236 237 238 239 240 241 242 243 244 245 247 -249 -250 -109 0 
-189 1 2 3 4 6 7 18 19 58 77 78 79 80 81 82 83 86 88 89 111 145 157 158 160 163 165 172 173 174 175 176 177 178 179 180 181 182 184 185 186 187 188 190 191 193 199 200 201 202 223 224 226 227 228 229 230 231 232 233 234 236 237 238 239 240 241 242 243 244 245 247 -249 -250 -109 0 
-187 1 2 3 4 6 7 18 19 58 77 78 79 80 81 82 83 86 88 89 111 145 157 158 160 163 165 172 173 174 175 176 177 178 179 180 181 182 184 185 186 188 189 190 191 193 199 200 201 202 223 224 226 227 228 229 230 231 232 233 234 236 237 238 239 240 241 242 243 244 245 252 -249 -250 -27 -73 0 
-193 1 2 3 4 6 7 18 19 58 77 78 79 80 81 82 83 86 88 89 111 145 157 158 160 163 165 172 173 174 175 176 177 178 179 180 181 182 184 185 186 187 188 189 190 191 199 200 201 202 223 224 226 227 228 229 230 231 232 233 234 236 237 238 239 240 241 242 243 244 245 -105 120 211 -10 5 13 17 23 29 93 127 144 169 235 -34 250 -249 0 
-195 22 59 115 131 203 -47 250 -249 0 
-21 12 24 37 -196 11 16 -59 22 115 131 195 203 -50 60 67 112 250 -249 0 
-59 22 115 131 195 203 -197 250 -249 0 
-22 59 115 131 195 203 -198 250 -249 0 
-209 250 -249 0 
-210 132 134 135 213 250 -249 0 
-26 38 43 -211 105 120 250 -249 0 
-27 73 -11 16 196 250 -249 0 
-55 247 -249 -250 -109 0 
-212 250 -249 0 
-55 250 -249 0 
-212 247 -249 -250 -109 0 
-213 132 134 135 210 250 -249 0 
-214 49 106 250 -249 0 
-215 250 -249 0 
-26 38 43 -27 73 -216 167 250 -249 0 
-27 73 -97 41 57 -17 5 10 13 23 29 93 127 144 169 235 -217 -171 8 14 20 51 87 126 129 194 248 -249 -250 -12 -21 -24 -37 0 
-218 222 248 -249 -250 -12 -21 -24 -37 0 
-11 16 196 -97 41 57 248 -249 -250 -12 -21 -24 -37 0 
-171 8 14 20 51 87 126 129 194 248 -249 -250 -12 -21 -24 -37 0 
-219 183 220 248 -249 -250 -12 -21 -24 -37 0 
-220 183 219 -34 250 -249 0 
-221 -222 218 249 -250 0 
-17 5 10 13 23 29 93 127 144 169 235 -27 73 -97 41 57 248 -249 -250 -12 -21 -24 -37 0 
-27 73 -42 53 121 -120 105 211 248 -249 -250 -12 -21 -24 -37 0 
-223 1 2 3 4 6 7 18 19 58 77 78 79 80 81 82 83 86 88 89 111 145 157 158 160 163 165 172 173 174 175 176 177 178 179 180 181 182 184 185 186 187 188 189 190 191 193 199 200 201 202 224 226 227 228 229 230 231 232 233 234 236 237 238 239 240 241 242 243 244 245 248 -249 -250 -12 -21 -24 -37 0 
-224 1 2 3 4 6 7 18 19 58 77 78 79 80 81 82 83 86 88 89 111 145 157 158 160 163 165 172 173 174 175 176 177 178 179 180 181 182 184 185 186 187 188 189 190 191 193 199 200 201 202 223 226 227 228 229 230 231 232 233 234 236 237 238 239 240 241 242 243 244 245 248 -249 -250 -12 -21 -24 -37 0 
-27 73 -171 8 14 20 51 87 126 129 194 -97 41 57 -17 5 10 13 23 29 93 127 144 169 235 248 -249 -250 -12 -21 -24 -37 0 
-226 1 2 3 4 6 7 18 19 58 77 78 79 80 81 82 83 86 88 89 111 145 157 158 160 163 165 172 173 174 175 176 177 178 179 180 181 182 184 185 186 187 188 189 190 191 193 199 200 201 202 223 224 227 228 229 230 231 232 233 234 236 237 238 239 240 241 242 243 244 245 247 -249 -250 -109 0 
-227 1 2 3 4 6 7 18 19 58 77 78 79 80 81 82 83 86 88 89 111 145 157 158 160 163 165 172 173 174 175 176 177 178 179 180 181 182 184 185 186 187 188 189 190 191 193 199 200 201 202 223 224 226 228 229 230 231 232 233 234 236 237 238 239 240 241 242 243 244 245 247 -249 -250 -109 0 
-228 1 2 3 4 6 7 18 19 58 77 78 79 80 81 82 83 86 88 89 111 145 157 158 160 163 165 172 173 174 175 176 177 178 179 180 181 182 184 185 186 187 188 189 190 191 193 199 200 201 202 223 224 226 227 229 230 231 232 233 234 236 237 238 239 240 241 242 243 244 245 247 -249 -250 -109 0 
-229 1 2 3 4 6 7 18 19 58 77 78 79 80 81 82 83 86 88 89 111 145 157 158 160 163 165 172 173 174 175 176 177 178 179 180 181 182 184 185 186 187 188 189 190 191 193 199 200 201 202 223 224 226 227 228 230 231 232 233 234 236 237 238 239 240 241 242 243 244 245 247 -249 -250 -109 0 
-230 1 2 3 4 6 7 18 19 58 77 78 79 80 81 82 83 86 88 89 111 145 157 158 160 163 165 172 173 174 175 176 177 178 179 180 181 182 184 185 186 187 188 189 190 191 193 199 200 201 202 223 224 226 227 228 229 231 232 233 234 236 237 238 239 240 241 242 243 244 245 247 -249 -250 -109 0 
-231 1 2 3 4 6 7 18 19 58 77 78 79 80 81 82 83 86 88 89 111 145 157 158 160 163 165 172 173 174 175 176 177 178 179 180 181 182 184 185 186 187 188 189 190 191 193 199 200 201 202 223 224 226 227 228 229 230 232 233 234 236 237 238 239 240 241 242 243 244 245 247 -249 -250 -109 0 
-232 1 2 3 4 6 7 18 19 58 77 78 79 80 81 82 83 86 88 89 111 145 157 158 160 163 165 172 173 174 175 176 177 178 179 180 181 182 184 185 186 187 188 189 190 191 193 199 200 201 202 223 224 226 227 228 229 230 231 233 234 236 237 238 239 240 241 242 243 244 245 247 -249 -250 -109 0 
-233 1 2 3 4 6 7 18 19 58 77 78 79 80 81 82 83 86 88 89 111 145 157 158 160 163 165 172 173 174 175 176 177 178 179 180 181 182 184 185 186 187 188 189 190 191 193 199 200 201 202 223 224 226 227 228 229 230 231 232 234 236 237 238 239 240 241 242 243 244 245 247 -249 -250 -109 0 
-234 1 2 3 4 6 7 18 19 58 77 78 79 80 81 82 83 86 88 89 111 145 157 158 160 163 165 172 173 174 175 176 177 178 179 180 181 182 184 185 186 187 188 189 190 191 193 199 200 201 202 223 224 226 227 228 229 230 231 232 233 236 237 238 239 240 241 242 243 244 245 247 -249 -250 -109 0 
-236 1 2 3 4 6 7 18 19 58 77 78 79 80 81 82 83 86 88 89 111 145 157 158 160 163 165 172 173 174 175 176 177 178 179 180 181 182 184 185 186 187 188 189 190 191 193 199 200 201 202 223 224 226 227 228 229 230 231 232 233 234 237 238 239 240 241 242 243 244 245 247 -249 -250 -109 0 
-237 1 2 3 4 6 7 18 19 58 77 78 79 80 81 82 83 86 88 89 111 145 157 158 160 163 165 172 173 174 175 176 177 178 179 180 181 182 184 185 186 187 188 189 190 191 193 199 200 201 202 223 224 226 227 228 229 230 231 232 233 234 236 238 239 240 241 242 243 244 245 247 -249 -250 -109 0 
-238 1 2 3 4 6 7 18 19 58 77 78 79 80 81 82 83 86 88 89 111 145 157 158 160 163 165 172 173 174 175 176 177 178 179 180 181 182 184 185 186 187 188 189 190 191 193 199 200 201 202 223 224 226 227 228 229 230 231 232 233 234 236 237 239 240 241 242 243 244 245 247 -249 -250 -109 0 
-239 1 2 3 4 6 7 18 19 58 77 78 79 80 81 82 83 86 88 89 111 145 157 158 160 163 165 172 173 174 175 176 177 178 179 180 181 182 184 185 186 187 188 189 190 191 193 199 200 201 202 223 224 226 227 228 229 230 231 232 233 234 236 237 238 240 241 242 243 244 245 247 -249 -250 -109 0 
-240 1 2 3 4 6 7 18 19 58 77 78 79 80 81 82 83 86 88 89 111 145 157 158 160 163 165 172 173 174 175 176 177 178 179 180 181 182 184 185 186 187 188 189 190 191 193 199 200 201 202 223 224 226 227 228 229 230 231 232 233 234 236 237 238 239 241 242 243 244 245 247 -249 -250 -109 0 
-241 1 2 3 4 6 7 18 19 58 77 78 79 80 81 82 83 86 88 89 111 145 157 158 160 163 165 172 173 174 175 176 177 178 179 180 181 182 184 185 186 187 188 189 190 191 193 199 200 201 202 223 224 226 227 228 229 230 231 232 233 234 236 237 238 239 240 242 243 244 245 247 -249 -250 -109 0 
-242 1 2 3 4 6 7 18 19 58 77 78 79 80 81 82 83 86 88 89 111 145 157 158 160 163 165 172 173 174 175 176 177 178 179 180 181 182 184 185 186 187 188 189 190 191 193 199 200 201 202 223 224 226 227 228 229 230 231 232 233 234 236 237 238 239 240 241 243 244 245 247 -249 -250 -109 0 
-243 1 2 3 4 6 7 18 19 58 77 78 79 80 81 82 83 86 88 89 111 145 157 158 160 163 165 172 173 174 175 176 177 178 179 180 181 182 184 185 186 187 188 189 190 191 193 199 200 201 202 223 224 226 227 228 229 230 231 232 233 234 236 237 238 239 240 241 242 244 245 247 -249 -250 -109 0 
-244 1 2 3 4 6 7 18 19 58 77 78 79 80 81 82 83 86 88 89 111 145 157 158 160 163 165 172 173 174 175 176 177 178 179 180 181 182 184 185 186 187 188 189 190 191 193 199 200 201 202 223 224 226 227 228 229 230 231 232 233 234 236 237 238 239 240 241 242 243 245 247 -249 -250 -109 0 
-245 1 2 3 4 6 7 18 19 58 77 78 79 80 81 82 83 86 88 89 111 145 157 158 160 163 165 172 173 174 175 176 177 178 179 180 181 182 184 185 186 187 188 189 190 191 193 199 200 201 202 223 224 226 227 228 229 230 231 232 233 234 236 237 238 239 240 241 242 243 244 248 -249 -250 -12 -21 -24 -37 0 
-12 21 24 37 -246 36 46 61 71 122 142 156 162 164 168 204 205 206 207 208 249 -250 0 
151 179 187 0 
-12 21 -25 0 
-87 143 -228 0 
18 -87 -199 0 
32 -86 219 0 
3 -95 188 0 
159 167 -195 0 
-130 -239 247 0 
15 64 130 0 
4 -68 -137 0 
42 52 -167 0 
65 70 -146 0 
44 -86 170 0 
105 209 212 0 
157 226 244 0 
145 165 192 0 
67 163 -219 0 
-49 -123 248 0 
-126 -205 211 0 
-57 -70 -185 0 
40 -108 -151 0 
17 203 -250 0 
-35 45 -59 0 
-23 45 -120 0 
-85 -89 -175 0 
49 -194 249 0 
-46 99 250 0 
-126 135 -174 0 
-14 -90 156 0 
-5 -14 231 0 
-33 128 206 0 
-10 -23 -79 0 
-53 201 -214 0 
23 102 -156 0 
-144 170 -193 0 
-5 -164 230 0 
-55 107 157 0 
54 -209 -218 0 
123 132 -207 0 
12 15 196 0 
-139 175 176 0 
87 166 -215 0 
3 -71 105 0 
95 -120 171 0 
-18 42 176 0 
33 82 130 0 
142 -180 205 0 
-77 -134 -192 0 
72 -127 -208 0 
-80 134 191 0 
-14 -201 -204 0 
69 -124 -195 0 
-94 -130 -250 0 
-19 69 135 0 
-6 -226 -240 0 
-69 210 237 0 
-53 145 -201 0 
6 139 -153 0 
-64 -117 160 0 
49 -51 -149 0 
64 116 196 0 
68 -123 -172 0 
3 -22 -156 0 
19 -194 -210 0 
140 -203 212 0 
6 -140 203 0 
-81 -188 -215 0 
-72 -216 -250 0 
15 63 -138 0 
174 203 -252 0 
-50 166 201 0 
113 184 -217 0 
13 108 -181 0 
119 141 252 0 
122 142 248 0 
-107 -139 -248 0 
-46 -78 -235 0 
-35 -52 -101 0 
113 -203 -206 0 
53 -125 -164 0 
-168 179 232 0 
34 -157 -205 0 
-54 -116 251 0 
96 100 221 0 
-4 -94 -203 0 
17 82 162 0 
-214 -239 246 0 
-186 219 225 0 
12 160 -190 0 
85 -86 169 0 
125 -209 231 0 
95 -121 -215 0 
-6 -27 95 0 
66 91 203 0 
-7 -66 -146 0 
-12 -129 183 0 
138 138 187 0 
1 -138 174 0 
-94 130 -194 0 
-103 -104 106 0 
-17 26 193 0 
80 -139 182 0 
-27 -227 238 0 
-5 20 -84 0 
44 76 88 0 
-194 196 223 0 
73 -151 -178 0 
31 44 -249 0 
-22 -116 -201 0 
-74 124 237 0 
-93 157 -212 0 
50 101 -226 0 
-22 35 233 0 
-36 -104 215 0 
21 154 -187 0 
-126 -160 202 0 
130 -174 218 0 
-78 -201 -252 0 
-105 172 -250 0 
-155 -176 -197 0 
10 -51 189 0 
72 117 -215 0 
-39 96 -114 0 
9 -62 -98 0 
-51 55 78 0 
79 -167 223 0 
-51 -95 226 0 
165 -182 -217 0 
-31 -92 -128 0 
5 151 165 0 
-47 115 -181 0 
52 -173 252 0 
-12 69 215 0 
135 159 -226 0 
-58 184 -243 0 
-69 89 -162 0 
-15 -139 180 0 
3 74 88 0 
99 122 190 0 
30 -133 203 0 
80 82 -124 0 
20 -99 -200 0 
-32 -37 229 0 
-71 -89 -250 0 
-65 -229 -250 0 
-59 66 -211 0 
38 -160 245 0 
24 -42 205 0 
8 -153 -168 0 
-29 37 -177 0 
-109 -179 245 0 
83 -102 -142 0 
-47 56 -75 0 
30 -199 206 0 
-138 -202 -206 0 
-27 62 -137 0 
78 134 -139 0 
-80 -103 193 0 
30 -147 -205 0 
-105 133 139 0 
33 -195 200 0 
-128 -169 225 0 
3 24 -50 0 
-7 -169 -183 0 
14 74 169 0 
59 170 -172 0 
-50 168 -226 0 
-100 114 -150 0 
99 -171 200 0 
-37 133 233 0 
-147 164 -184 0 
-47 87 227 0 
77 -165 247 0 
107 -146 -163 0 
65 -120 -193 0 
21 66 -167 0 
113 120 -211 0 
20 66 -142 0 
-55 -173 239 0 
31 61 -242 0 
166 229 232 0 
63 121 -185 0 
20 22 -221 0 
-31 -40 60 0 
-117 -195 -210 0 
-152 222 -247 0 
132 -165 -251 0 
-162 242 -250 0 
9 55 -102 0 
1 167 233 0 
-1 -36 120 0 
8 -194 -194 0 
31 -159 172 0 
-157 162 -241 0 
43 138 -239 0 
37 -93 158 0 
20 -55 -195 0 
66 142 -252 0 
-68 98 227 0 
-9 -110 115 0 
-10 -103 148 0 
-19 143 152 0 
37 55 -240 0 
150 219 -226 0 
-158 -210 -233 0 
9 -35 183 0 
-77 147 -186 0 
-91 -210 -233 0 
40 -185 -208 0 
189 210 -238 0 
186 -222 250 0 
-158 161 249 0 
-15 224 248 0 
-4 -22 225 0 
90 155 164 0 
-119 140 150 0 
176 180 -227 0 
148 197 218 0 
-10 -78 -169 0 
63 -181 -183 0 
111 146 219 0 
-24 -50 -164 0 
3 -39 -148 0 
43 -166 223 0 
55 220 230 0 
16 -41 197 0 
-74 127 -172 0 
-129 147 -184 0 
42 228 252 0 
16 -151 160 0 
-123 160 -165 0 
-155 -192 203 0 
14 -226 230 0 
82 -104 -199 0 
51 238 246 0 
-3 72 -224 0 
166 -197 -230 0 
-32 33 162 0 
-7 -91 -180 0 
163 -172 -173 0 
-3 -34 -59 0 
99 -101 173 0 
19 -53 -147 0 
-62 -138 -219 0 
-48 -121 249 0 
-18 -120 211 0 
26 64 -209 0 
66 211 -226 0 
124 137 142 0 
22 -61 -192 0 
32 -234 243 0 
187 192 200 0 
